results_rootrelaxation/bin012_070_044.srr.sol
solution status: optimal solution found
objective value:                     8.96478873239437
_var705_                            0.549295774647887 	(obj:1)
_var725_                            0.288732394366197 	(obj:0)
_var755_                            0.577464788732394 	(obj:2)
_var774_                            0.295774647887324 	(obj:1)
_var787_                           0.0985915492957749 	(obj:0)
_var789_                            0.401408450704225 	(obj:0)
_var791_                            0.415492957746479 	(obj:0)
_var793_                            0.126760563380282 	(obj:0)
_var794_                            0.316901408450704 	(obj:1)
_var812_                           0.0845070422535212 	(obj:1)
_var819_                            0.295774647887325 	(obj:0)
_var822_                            0.154929577464788 	(obj:1)
_var823_                            0.119718309859154 	(obj:1)
_var824_                           0.0633802816901412 	(obj:1)
_var826_                           0.0281690140845069 	(obj:2)
_var829_                            0.387323943661972 	(obj:2)
_var836_                            0.126760563380282 	(obj:1)
_var839_                            0.105633802816901 	(obj:1)
_var841_                            0.232394366197182 	(obj:1)
_var844_                           0.0704225352112667 	(obj:2)
_var845_                             0.52112676056338 	(obj:1)
_var850_                           0.0633802816901413 	(obj:1)
_var861_                            0.232394366197183 	(obj:0)
_var864_                          0.00704225352112678 	(obj:0)
_var866_                            0.119718309859154 	(obj:1)
_var872_                             0.21830985915493 	(obj:0)
_var874_                            0.387323943661972 	(obj:0)
_var878_                            0.140845070422536 	(obj:2)
_var888_                           0.0704225352112671 	(obj:1)
_var889_                            0.232394366197183 	(obj:1)
_var890_                            0.584507042253521 	(obj:0)
_var893_                            0.154929577464789 	(obj:0)
_var894_                            0.288732394366197 	(obj:1)
_var897_                            0.288732394366197 	(obj:1)
_var900_                           0.0633802816901408 	(obj:1)
_var901_                            0.126760563380282 	(obj:1)
_var906_                            0.253521126760564 	(obj:0)
_var908_                           0.0563380281690145 	(obj:1)
_var911_                           0.0774647887323936 	(obj:1)
_var912_                            0.204225352112676 	(obj:3)
_var918_                            0.197183098591549 	(obj:1)
_var920_                             0.26056338028169 	(obj:1)
_var922_                            0.542253521126761 	(obj:0)
_var923_                            0.154929577464789 	(obj:1)
_var925_                            0.126760563380281 	(obj:2)
_var926_                            0.225352112676055 	(obj:1)
_var928_                            0.133802816901408 	(obj:2)
_var930_                           0.0915492957746485 	(obj:1)
_var933_                           0.0845070422535206 	(obj:1)
_var934_                           0.0633802816901413 	(obj:0)
_var935_                           0.0422535211267618 	(obj:2)
_var937_                           0.0281690140845078 	(obj:1)
_var941_                           0.0140845070422526 	(obj:2)
_var942_                           0.0704225352112681 	(obj:2)
_var943_                           0.0281690140845067 	(obj:1)
_var944_                           0.0352112676056334 	(obj:0)
_var945_                           0.0492957746478886 	(obj:2)
_var946_                           0.0211267605633806 	(obj:2)
