results_rootrelaxation/bin012_070_044.srr.log
SCIP version 8.0.3.5 [precision: 8 byte] [memory: block] [mode: optimized] [LP solver: Soplex 6.0.1.3] [GitHash: 438792519e]
Copyright (c) 2002-2023 Zuse Institute Berlin (ZIB)

External libraries: 
  Readline 8.1         GNU library for command line editing (gnu.org/s/readline)
  Soplex 6.0.1.3       Linear Programming Solver developed at Zuse Institute Berlin (soplex.zib.de) [GitHash: 713be0fe]
  CppAD 20180000.0     Algorithmic Differentiation of C++ algorithms developed by B. Bell (github.com/coin-or/CppAD)
  ZLIB 1.2.11          General purpose compression library by J. Gailly and M. Adler (zlib.net)
  bliss 0.77           Computing Graph Automorphism Groups by T. Junttila and P. Kaski (www.tcs.hut.fi/Software/bliss/)

user parameter file <scip.set> not found - using default parameters

srr/relaxation = TRUE

read problem <instances/bin012_070_044.srr>
============

Original problem: 
original problem has 0 variables (0 bin, 0 int, 0 impl, 0 cont) and 77 constraints

presolving:
presolving (1 rounds: 1 fast, 1 medium, 1 exhaustive):
 0 deleted vars, 0 deleted constraints, 0 added constraints, 0 tightened bounds, 0 added holes, 0 changed sides, 0 changed coefficients
 0 implications, 0 cliques
presolved problem has 0 variables (0 bin, 0 int, 0 impl, 0 cont) and 77 constraints
     77 constraints of type <linear>
Presolving Time: 0.00

 time | node  | left  |LP iter|LP it/n|mem/heur|mdpt |vars |cons |rows |cuts |sepa|confs|strbr|  dualbound   | primalbound  |  gap   | compl. 
  0.0s|     1 |     0 |     1 |     - |   710k |   0 |   1 |  77 |  77 |   0 |  0 |   0 |   0 |      --      |      --      |    Inf | unknown
r 0.1s|     1 |     0 |  1113 |     - |simplero|   0 | 702 |  77 |  77 |   0 |  0 |   0 |   0 |      --      | 2.681929e+01 |    Inf | unknown
r 0.1s|     1 |     0 |  1156 |     - |simplero|   0 | 713 |  77 |  77 |   0 |  0 |   0 |   0 |      --      | 2.506837e+01 |    Inf | unknown
r 0.1s|     1 |     0 |  1196 |     - |simplero|   0 | 724 |  77 |  77 |   0 |  0 |   0 |   0 |      --      | 2.418033e+01 |    Inf | unknown
r 0.1s|     1 |     0 |  1247 |     - |simplero|   0 | 735 |  77 |  77 |   0 |  0 |   0 |   0 |      --      | 2.177442e+01 |    Inf | unknown
r 0.1s|     1 |     0 |  1278 |     - |simplero|   0 | 746 |  77 |  77 |   0 |  0 |   0 |   0 |      --      | 2.034301e+01 |    Inf | unknown
r 0.1s|     1 |     0 |  1286 |     - |simplero|   0 | 746 |  77 |  77 |   0 |  0 |   0 |   0 |      --      | 2.022315e+01 |    Inf | unknown
r 0.1s|     1 |     0 |  1290 |     - |simplero|   0 | 746 |  77 |  77 |   0 |  0 |   0 |   0 |      --      | 2.021499e+01 |    Inf | unknown
r 0.1s|     1 |     0 |  1293 |     - |simplero|   0 | 746 |  77 |  77 |   0 |  0 |   0 |   0 |      --      | 2.021437e+01 |    Inf | unknown
r 0.1s|     1 |     0 |  1342 |     - |simplero|   0 | 757 |  77 |  77 |   0 |  0 |   0 |   0 |      --      | 1.809918e+01 |    Inf | unknown
r 0.1s|     1 |     0 |  1355 |     - |simplero|   0 | 757 |  77 |  77 |   0 |  0 |   0 |   0 |      --      | 1.798160e+01 |    Inf | unknown
r 0.1s|     1 |     0 |  1392 |     - |simplero|   0 | 768 |  77 |  77 |   0 |  0 |   0 |   0 |      --      | 1.668184e+01 |    Inf | unknown
r 0.1s|     1 |     0 |  1417 |     - |simplero|   0 | 768 |  77 |  77 |   0 |  0 |   0 |   0 |      --      | 1.638455e+01 |    Inf | unknown
r 0.1s|     1 |     0 |  1424 |     - |simplero|   0 | 768 |  77 |  77 |   0 |  0 |   0 |   0 |      --      | 1.636281e+01 |    Inf | unknown
r 0.1s|     1 |     0 |  1430 |     - |simplero|   0 | 768 |  77 |  77 |   0 |  0 |   0 |   0 |      --      | 1.635983e+01 |    Inf | unknown
 time | node  | left  |LP iter|LP it/n|mem/heur|mdpt |vars |cons |rows |cuts |sepa|confs|strbr|  dualbound   | primalbound  |  gap   | compl. 
r 0.1s|     1 |     0 |  1472 |     - |simplero|   0 | 779 |  77 |  77 |   0 |  0 |   0 |   0 |      --      | 1.522339e+01 |    Inf | unknown
r 0.1s|     1 |     0 |  1477 |     - |simplero|   0 | 779 |  77 |  77 |   0 |  0 |   0 |   0 |      --      | 1.521531e+01 |    Inf | unknown
r 0.1s|     1 |     0 |  1508 |     - |simplero|   0 | 790 |  77 |  77 |   0 |  0 |   0 |   0 |      --      | 1.453957e+01 |    Inf | unknown
r 0.1s|     1 |     0 |  1523 |     - |simplero|   0 | 790 |  77 |  77 |   0 |  0 |   0 |   0 |      --      | 1.432128e+01 |    Inf | unknown
r 0.1s|     1 |     0 |  1525 |     - |simplero|   0 | 790 |  77 |  77 |   0 |  0 |   0 |   0 |      --      | 1.431838e+01 |    Inf | unknown
r 0.1s|     1 |     0 |  1529 |     - |simplero|   0 | 790 |  77 |  77 |   0 |  0 |   0 |   0 |      --      | 1.431412e+01 |    Inf | unknown
r 0.1s|     1 |     0 |  1582 |     - |simplero|   0 | 801 |  77 |  77 |   0 |  0 |   0 |   0 |      --      | 1.320682e+01 |    Inf | unknown
r 0.1s|     1 |     0 |  1584 |     - |simplero|   0 | 801 |  77 |  77 |   0 |  0 |   0 |   0 |      --      | 1.320607e+01 |    Inf | unknown
r 0.1s|     1 |     0 |  1620 |     - |simplero|   0 | 812 |  77 |  77 |   0 |  0 |   0 |   0 |      --      | 1.242408e+01 |    Inf | unknown
r 0.1s|     1 |     0 |  1630 |     - |simplero|   0 | 812 |  77 |  77 |   0 |  0 |   0 |   0 |      --      | 1.238831e+01 |    Inf | unknown
r 0.1s|     1 |     0 |  1633 |     - |simplero|   0 | 812 |  77 |  77 |   0 |  0 |   0 |   0 |      --      | 1.238757e+01 |    Inf | unknown
r 0.1s|     1 |     0 |  1669 |     - |simplero|   0 | 823 |  77 |  77 |   0 |  0 |   0 |   0 |      --      | 1.190471e+01 |    Inf | unknown
r 0.1s|     1 |     0 |  1681 |     - |simplero|   0 | 823 |  77 |  77 |   0 |  0 |   0 |   0 |      --      | 1.186771e+01 |    Inf | unknown
r 0.1s|     1 |     0 |  1684 |     - |simplero|   0 | 823 |  77 |  77 |   0 |  0 |   0 |   0 |      --      | 1.186723e+01 |    Inf | unknown
r 0.1s|     1 |     0 |  1709 |     - |simplero|   0 | 834 |  77 |  77 |   0 |  0 |   0 |   0 |      --      | 1.148202e+01 |    Inf | unknown
 time | node  | left  |LP iter|LP it/n|mem/heur|mdpt |vars |cons |rows |cuts |sepa|confs|strbr|  dualbound   | primalbound  |  gap   | compl. 
r 0.1s|     1 |     0 |  1733 |     - |simplero|   0 | 834 |  77 |  77 |   0 |  0 |   0 |   0 |      --      | 1.131108e+01 |    Inf | unknown
  0.1s|     1 |     0 |  1743 |     - |  4115k |   0 | 834 |  77 |  77 |   0 |  0 |   0 |   0 |      --      | 1.131108e+01 |    Inf | unknown
r 0.1s|     1 |     0 |  1743 |     - |simplero|   0 | 834 |  77 |  77 |   0 |  0 |   0 |   0 |      --      | 1.130092e+01 |    Inf | unknown
r 0.1s|     1 |     0 |  1745 |     - |simplero|   0 | 834 |  77 |  77 |   0 |  0 |   0 |   0 |      --      | 1.130064e+01 |    Inf | unknown
r 0.1s|     1 |     0 |  1780 |     - |simplero|   0 | 845 |  77 |  77 |   0 |  0 |   0 |   0 |      --      | 1.055878e+01 |    Inf | unknown
r 0.1s|     1 |     0 |  1796 |     - |simplero|   0 | 845 |  77 |  77 |   0 |  0 |   0 |   0 |      --      | 1.047352e+01 |    Inf | unknown
r 0.1s|     1 |     0 |  1804 |     - |simplero|   0 | 845 |  77 |  77 |   0 |  0 |   0 |   0 |      --      | 1.042098e+01 |    Inf | unknown
r 0.1s|     1 |     0 |  1809 |     - |simplero|   0 | 845 |  77 |  77 |   0 |  0 |   0 |   0 |      --      | 1.041451e+01 |    Inf | unknown
r 0.1s|     1 |     0 |  1844 |     - |simplero|   0 | 856 |  77 |  77 |   0 |  0 |   0 |   0 |      --      | 1.021050e+01 |    Inf | unknown
r 0.1s|     1 |     0 |  1853 |     - |simplero|   0 | 856 |  77 |  77 |   0 |  0 |   0 |   0 |      --      | 1.019256e+01 |    Inf | unknown
r 0.1s|     1 |     0 |  1888 |     - |simplero|   0 | 867 |  77 |  77 |   0 |  0 |   0 |   0 |      --      | 9.950719e+00 |    Inf | unknown
r 0.1s|     1 |     0 |  1918 |     - |simplero|   0 | 878 |  77 |  77 |   0 |  0 |   0 |   0 |      --      | 9.711656e+00 |    Inf | unknown
r 0.1s|     1 |     0 |  1925 |     - |simplero|   0 | 878 |  77 |  77 |   0 |  0 |   0 |   0 |      --      | 9.684282e+00 |    Inf | unknown
r 0.1s|     1 |     0 |  1926 |     - |simplero|   0 | 878 |  77 |  77 |   0 |  0 |   0 |   0 |      --      | 9.684071e+00 |    Inf | unknown
r 0.1s|     1 |     0 |  1961 |     - |simplero|   0 | 888 |  77 |  77 |   0 |  0 |   0 |   0 |      --      | 9.500000e+00 |    Inf | unknown
 time | node  | left  |LP iter|LP it/n|mem/heur|mdpt |vars |cons |rows |cuts |sepa|confs|strbr|  dualbound   | primalbound  |  gap   | compl. 
r 0.1s|     1 |     0 |  1985 |     - |simplero|   0 | 899 |  77 |  77 |   0 |  0 |   0 |   0 |      --      | 9.256049e+00 |    Inf | unknown
r 0.1s|     1 |     0 |  1991 |     - |simplero|   0 | 899 |  77 |  77 |   0 |  0 |   0 |   0 |      --      | 9.234465e+00 |    Inf | unknown
r 0.1s|     1 |     0 |  2005 |     - |simplero|   0 | 909 |  77 |  77 |   0 |  0 |   0 |   0 |      --      | 9.113772e+00 |    Inf | unknown
r 0.1s|     1 |     0 |  2018 |     - |simplero|   0 | 917 |  77 |  77 |   0 |  0 |   0 |   0 |      --      | 9.086444e+00 |    Inf | unknown
r 0.1s|     1 |     0 |  2030 |     - |simplero|   0 | 924 |  77 |  77 |   0 |  0 |   0 |   0 |      --      | 9.061611e+00 |    Inf | unknown
r 0.1s|     1 |     0 |  2048 |     - |simplero|   0 | 924 |  77 |  77 |   0 |  0 |   0 |   0 |      --      | 9.037681e+00 |    Inf | unknown
r 0.1s|     1 |     0 |  2067 |     - |simplero|   0 | 930 |  77 |  77 |   0 |  0 |   0 |   0 |      --      | 8.982143e+00 |    Inf | unknown
r 0.1s|     1 |     0 |  2078 |     - |simplero|   0 | 936 |  77 |  77 |   0 |  0 |   0 |   0 |      --      | 8.973684e+00 |    Inf | unknown
r 0.1s|     1 |     0 |  2088 |     - |simplero|   0 | 936 |  77 |  77 |   0 |  0 |   0 |   0 |      --      | 8.971698e+00 |    Inf | unknown
r 0.1s|     1 |     0 |  2096 |     - |simplero|   0 | 941 |  77 |  77 |   0 |  0 |   0 |   0 |      --      | 8.970684e+00 |    Inf | unknown
r 0.1s|     1 |     0 |  2100 |     - |simplero|   0 | 941 |  77 |  77 |   0 |  0 |   0 |   0 |      --      | 8.970297e+00 |    Inf | unknown
r 0.1s|     1 |     0 |  2109 |     - |simplero|   0 | 945 |  77 |  77 |   0 |  0 |   0 |   0 |      --      | 8.966102e+00 |    Inf | unknown
r 0.1s|     1 |     0 |  2114 |     - |simplero|   0 | 946 |  77 |  77 |   0 |  0 |   0 |   0 |      --      | 8.964912e+00 |    Inf | unknown
r 0.1s|     1 |     0 |  2117 |     - |simplero|   0 | 948 |  77 |  77 |   0 |  0 |   0 |   0 |      --      | 8.964789e+00 |    Inf | unknown
  0.1s|     1 |     0 |  2117 |     - |  4762k |   0 | 948 |  77 |  77 |   0 |  0 |   0 |   0 | 8.964789e+00 | 8.964789e+00 |   0.00%| unknown
 time | node  | left  |LP iter|LP it/n|mem/heur|mdpt |vars |cons |rows |cuts |sepa|confs|strbr|  dualbound   | primalbound  |  gap   | compl. 
  0.1s|     1 |     0 |  2117 |     - |  4762k |   0 | 948 |  77 |  77 |   0 |  0 |   0 |   0 | 8.964789e+00 | 8.964789e+00 |   0.00%| unknown

SCIP Status        : problem is solved [optimal solution found]
Solving Time (sec) : 0.11
Solving Nodes      : 1
Primal Bound       : +8.96478873239437e+00 (57 solutions)
Dual Bound         : +8.96478873239437e+00
Gap                : 0.00 %

written transformed problem to file <results_rootrelaxation/bin012_070_044.srr.lp>
written transformed problem to file <results_rootrelaxation/bin012_070_044.srr.cip>

written solution information to file <results_rootrelaxation/bin012_070_044.srr.sol>



